33

C	   -1.7652	   -0.2366	   -0.4732
C	   -3.7913	   -0.3196	   -1.4842
H	   -4.4987	   -0.2917	   -2.3178
C	   -3.9889	   -0.5271	   -0.1437
H	   -4.9017	   -0.7160	    0.4280
C	   -1.7599	    0.1128	   -2.9329
H	   -1.3217	    1.1307	   -2.9240
H	   -2.4969	    0.0245	   -3.7517
H	   -0.9460	   -0.6228	   -3.0789
C	   -2.4904	   -0.6024	    1.8870
H	   -1.5017	   -1.0833	    2.0207
H	   -3.2607	   -1.2685	    2.3239
C	   -2.5132	    0.7546	    2.5904
H	   -1.7036	    1.3894	    2.1599
H	   -3.4848	    1.2649	    2.3659
C	    2.8538	   -0.4867	    1.1735
H	    2.1986	   -1.1186	    1.7901
C	    4.2248	   -0.3744	    1.4258
H	    4.6615	   -0.9119	    2.2793
C	    5.0123	    0.4160	    0.5772
H	    6.0949	    0.5171	    0.7470
C	    4.3902	    1.0743	   -0.4927
H	    4.9609	    1.7055	   -1.1885
C	    3.0109	    0.9291	   -0.6720
H	    2.4709	    1.4485	   -1.4765
N	   -2.4260	   -0.1462	   -1.6651
N	   -2.7378	   -0.4807	    0.4567
N	    2.2549	    0.1582	    0.1445
O	   -2.3438	    0.4991	    3.9712
H	   -2.0819	    1.3350	    4.3935
I	    0.3707	   -2.7017	   -0.1795
I	   -0.1322	    2.6156	   -0.2527
Pt	    0.1691	   -0.0435	   -0.1784
