37

Zr	    0.8522	   -0.1627	   -0.0963
O	    1.7036	    1.2656	   -1.2754
O	   -2.4602	   -0.6420	    0.8100
C	    1.4621	    2.5710	   -1.2304
C	    0.2484	    3.1202	   -0.8774
C	   -0.9420	    2.3918	   -0.5059
C	   -1.0651	    1.0431	   -0.2133
C	   -2.3831	    0.5019	    0.0235
C	   -3.6727	    0.8285	   -0.3867
C	   -4.5599	   -0.1424	    0.1772
C	   -3.7712	   -1.0115	    0.8961
C	   -0.1741	   -2.4352	   -0.5273
C	   -0.5510	   -1.6166	   -1.6358
C	    0.6303	   -1.2962	   -2.3637
C	    1.7366	   -1.9039	   -1.7045
C	    1.2380	   -2.6178	   -0.5714
C	    2.3208	   -0.7582	    1.8642
C	    0.9683	   -0.9103	    2.3074
C	    0.3678	    0.3812	    2.3369
C	    1.3466	    1.3317	    1.9173
C	    2.5504	    0.6303	    1.6312
H	    2.2940	    3.2187	   -1.5719
H	    0.1680	    4.2147	   -0.9679
H	   -1.8578	    3.0166	   -0.4615
H	   -3.9356	    1.6645	   -1.0434
H	   -5.6483	   -0.1980	    0.0605
H	   -3.9817	   -1.9008	    1.4989
H	   -0.8585	   -2.8359	    0.2297
H	   -1.5693	   -1.2963	   -1.8828
H	    0.6854	   -0.6471	   -3.2453
H	    2.7889	   -1.8264	   -2.0076
H	    1.8348	   -3.2097	    0.1326
H	    3.0596	   -1.5610	    1.7502
H	    0.4810	   -1.8544	    2.5806
H	   -0.6648	    0.6041	    2.6261
H	    1.1817	    2.4080	    1.7873
H	    3.4844	    1.0761	    1.2665
