70

Nb	    0.6087	   -0.7289	    0.2715
Si	    4.3253	   -0.7863	   -0.7408
Si	   -0.9725	    1.8580	    2.6125
N	    0.4984	    0.9370	   -0.4396
C	   -1.4599	   -1.1034	   -0.1133
C	   -2.6684	   -1.2312	   -0.3736
C	    4.2172	    1.0953	   -0.6516
C	    5.2027	   -1.4658	    0.7937
C	    5.2839	   -1.3021	   -2.2894
C	   -2.4220	    1.9182	    1.4096
C	   -1.6369	    1.8893	    4.3894
C	    0.1923	    3.3211	    2.3475
C	    2.5949	   -1.5371	   -0.8994
C	    2.0739	   -2.7243	   -0.2595
C	    0.8060	   -3.0239	   -0.7984
C	    0.5337	   -2.0635	   -1.8376
C	    1.6351	   -1.1838	   -1.9164
C	    0.0322	    0.2585	    2.4603
C	    1.4584	    0.1486	    2.3890
C	    1.8218	   -1.2369	    2.4251
C	    0.6282	   -2.0019	    2.5293
C	   -0.4652	   -1.0897	    2.5202
C	   -4.0616	   -1.3015	   -0.6703
C	   -4.7928	   -0.1165	   -0.9545
C	   -6.1604	   -0.1762	   -1.2457
C	   -6.8317	   -1.4106	   -1.2616
C	   -6.1211	   -2.5902	   -0.9825
C	   -4.7531	   -2.5412	   -0.6899
C	    0.3115	    1.9963	   -1.2738
C	    1.1799	    3.1245	   -1.2860
C	    0.9411	    4.1939	   -2.1576
C	   -0.1630	    4.1823	   -3.0271
C	   -1.0291	    3.0739	   -3.0218
C	   -0.7998	    1.9898	   -2.1687
H	    5.2296	    1.5483	   -0.6281
H	    3.6684	    1.4153	    0.2566
H	    3.6761	    1.5058	   -1.5275
H	    5.1220	   -2.5699	    0.8637
H	    4.8063	   -1.0259	    1.7307
H	    6.2826	   -1.2156	    0.7450
H	    6.3135	   -0.8882	   -2.2768
H	    4.7785	   -0.9350	   -3.2058
H	    5.3568	   -2.4063	   -2.3626
H	   -2.0638	    1.9401	    0.3624
H	   -3.0294	    2.8277	    1.5975
H	   -3.0769	    1.0317	    1.5234
H	   -0.8103	    1.8542	    5.1282
H	   -2.3000	    1.0206	    4.5810
H	   -2.2255	    2.8117	    4.5753
H	    0.5885	    3.3293	    1.3133
H	    1.0456	    3.2968	    3.0561
H	   -0.3504	    4.2752	    2.5084
H	    2.5682	   -3.2737	    0.5505
H	    0.1315	   -3.8295	   -0.4842
H	   -0.3752	   -2.0221	   -2.4470
H	    1.7135	   -0.3264	   -2.5965
H	    2.1593	    0.9907	    2.3291
H	    2.8438	   -1.6313	    2.3983
H	    0.5560	   -3.0962	    2.5436
H	   -1.5235	   -1.3700	    2.5695
H	   -4.2644	    0.8479	   -0.9384
H	   -6.7103	    0.7525	   -1.4630
H	   -7.9071	   -1.4534	   -1.4912
H	   -6.6406	   -3.5608	   -0.9930
H	   -4.1956	   -3.4637	   -0.4707
H	    2.0418	    3.1378	   -0.6045
H	    1.6280	    5.0548	   -2.1536
H	   -0.3464	    5.0293	   -3.7046
H	   -1.8965	    3.0510	   -3.7001
H	   -1.4673	    1.1151	   -2.1559
