41

V	   -1.0997	    1.1140	    0.2421
N	   -0.6360	   -0.9951	    0.0749
N	    0.6851	   -1.3107	    0.0318
N	    7.1272	   -0.3970	   -0.1489
O	   -2.7333	    0.5315	   -0.3736
O	   -5.3511	    0.8567	   -0.5066
O	    0.8084	    0.9803	   -0.1130
O	    7.6570	   -1.5074	   -0.1058
O	    7.7285	    0.6752	   -0.2134
O	   -1.1904	    1.1839	    1.8107
O	   -1.0949	    2.7649	   -0.3705
C	   -2.9217	   -1.8222	    0.0783
C	   -3.4871	   -0.5373	   -0.1747
C	   -4.9104	   -0.4000	   -0.2592
C	   -5.7222	   -1.5307	   -0.0883
H	   -6.8147	   -1.4347	   -0.1458
C	   -5.1521	   -2.8008	    0.1593
H	   -5.8135	   -3.6695	    0.2899
C	   -3.7740	   -2.9518	    0.2361
H	   -3.3226	   -3.9371	    0.4253
C	   -6.7467	    1.0656	   -0.6080
H	   -7.1937	    0.4773	   -1.4409
H	   -6.8868	    2.1429	   -0.8120
H	   -7.2741	    0.8040	    0.3371
C	   -1.4968	   -1.9882	    0.1119
H	   -1.0765	   -3.0102	    0.1591
C	    1.3882	   -0.1937	   -0.0416
C	    2.8636	   -0.2558	   -0.0689
C	    3.6100	    0.9407	   -0.1433
H	    3.0712	    1.8976	   -0.1795
C	    5.0069	    0.8996	   -0.1690
H	    5.6206	    1.8082	   -0.2259
C	    5.6441	   -0.3475	   -0.1210
C	    4.9264	   -1.5511	   -0.0474
H	    5.4802	   -2.4984	   -0.0117
C	    3.5317	   -1.5011	   -0.0213
H	    2.9310	   -2.4194	    0.0363
C	   -0.7871	    4.0069	    0.1976
H	   -0.9907	    4.0185	    1.2923
H	   -1.3916	    4.7991	   -0.2960
H	    0.2885	    4.2441	    0.0322
